(set-option :produce-models true); benchmark generated from python API
(set-info :status unknown)
(declare-fun l_1_0_13 () Real)
(declare-fun l_1_0_11 () Real)
(declare-fun l_1_0_12 () Real)
(declare-fun l_1_0_10 () Real)
(declare-fun _a_0_ () Real)
(declare-fun l_1_0_9 () Real)
(declare-fun l_1_0_8 () Real)
(declare-fun l_1_0_7 () Real)
(declare-fun l_1_0_6 () Real)
(declare-fun l_1_0_5 () Real)
(declare-fun l_1_0_4 () Real)
(declare-fun l_1_0_3 () Real)
(declare-fun l_1_0_2 () Real)
(declare-fun l_1_0_1 () Real)
(declare-fun _a_1_ () Real)
(declare-fun l_1_0_14 () Real)
(declare-fun _a_2_ () Real)
(declare-fun _a_3_ () Real)
(declare-fun _a_4_ () Real)
(declare-fun _a_5_ () Real)
(declare-fun l_1_1_9 () Real)
(declare-fun l_1_1_5 () Real)
(declare-fun l_1_1_4 () Real)
(declare-fun l_1_1_3 () Real)
(declare-fun l_1_1_2 () Real)
(declare-fun l_1_1_15 () Real)
(declare-fun l_1_1_14 () Real)
(declare-fun l_1_1_11 () Real)
(declare-fun l_1_1_10 () Real)
(declare-fun l_1_1_1 () Real)
(declare-fun l_1_1_8 () Real)
(declare-fun l_1_1_7 () Real)
(declare-fun l_1_1_6 () Real)
(declare-fun l_1_1_13 () Real)
(declare-fun l_1_1_12 () Real)
(declare-fun l_1_1_20 () Real)
(declare-fun l_1_1_19 () Real)
(declare-fun l_1_1_18 () Real)
(declare-fun l_1_1_16 () Real)
(declare-fun l_1_1_17 () Real)
(declare-fun l_1_2_9 () Real)
(declare-fun l_1_2_6 () Real)
(declare-fun l_1_2_5 () Real)
(declare-fun l_1_2_20 () Real)
(declare-fun l_1_2_2 () Real)
(declare-fun l_1_2_19 () Real)
(declare-fun l_1_2_18 () Real)
(declare-fun l_1_2_12 () Real)
(declare-fun l_1_2_11 () Real)
(declare-fun l_1_2_1 () Real)
(declare-fun l_1_2_8 () Real)
(declare-fun l_1_2_13 () Real)
(declare-fun l_1_2_10 () Real)
(declare-fun l_1_2_17 () Real)
(declare-fun l_1_2_16 () Real)
(declare-fun l_1_2_7 () Real)
(declare-fun l_1_2_4 () Real)
(declare-fun l_1_2_3 () Real)
(declare-fun l_1_2_15 () Real)
(declare-fun l_1_2_14 () Real)
(assert
 (let ((?x1702 (- (- _a_0_ (* (* 2.0 l_1_0_10) l_1_0_12)) (* (* 2.0 l_1_0_11) l_1_0_13))))
 (= ?x1702 0.0)))
(assert
 (let ((?x1638 (* l_1_0_9 l_1_0_9)))
 (let ((?x50 (* (/ 1.0 4.0) l_1_0_7)))
 (let ((?x1636 (* (/ 1.0 4.0) l_1_0_6)))
 (let ((?x45 (* (/ 1.0 16.0) l_1_0_4)))
 (let ((?x1056 (- (- (- (- (- _a_1_ (* (/ 1.0 4.0) l_1_0_1)) l_1_0_2) l_1_0_3) ?x45) l_1_0_5)))
 (= (- (- (- (- ?x1056 ?x1636) ?x50) l_1_0_8) ?x1638) 0.0)))))))
(assert
 (let ((?x1211 (* (/ 1.0 2.0) l_1_0_4)))
 (let ((?x1551 (* l_1_0_14 l_1_0_14)))
 (let ((?x1547 (* l_1_0_13 l_1_0_13)))
 (let ((?x1485 (+ (- (- (- (+ _a_2_ l_1_0_1) (* l_1_0_12 l_1_0_12)) ?x1547) ?x1551) ?x1211)))
 (= (+ (+ ?x1485 l_1_0_6) l_1_0_7) 0.0))))))
(assert
 (= (- _a_3_ (* (* 2.0 l_1_0_12) l_1_0_9)) 0.0))
(assert
 (= (- _a_4_ (* (* 2.0 l_1_0_10) l_1_0_9)) 0.0))
(assert
 (let ((?x1211 (* (/ 1.0 2.0) l_1_0_4)))
 (let ((?x380 (* l_1_0_11 l_1_0_11)))
 (let ((?x1386 (+ (+ (- (- (+ _a_5_ l_1_0_1) (* l_1_0_10 l_1_0_10)) ?x380) ?x1211) l_1_0_6)))
 (= (+ ?x1386 l_1_0_7) 0.0)))))
(assert
 (= (- l_1_0_4) 0.0))
(assert
 (= (* (- 2.0) l_1_0_4) 0.0))
(assert
 (= (- l_1_0_4) 0.0))
(assert
 (>= l_1_0_1 0.0))
(assert
 (>= l_1_0_2 0.0))
(assert
 (>= l_1_0_3 0.0))
(assert
 (>= l_1_0_4 0.0))
(assert
 (>= l_1_0_5 0.0))
(assert
 (>= l_1_0_6 0.0))
(assert
 (>= l_1_0_7 0.0))
(assert
 (>= l_1_0_8 0.0))
(assert
 (>= l_1_0_9 0.0))
(assert
 (>= l_1_0_11 0.0))
(assert
 (>= l_1_0_14 0.0))
(assert
 (let ((?x1219 (* 3.0 l_1_1_4)))
 (let ((?x1212 (* 9.0 l_1_1_3)))
 (let ((?x1299 (* 3.0 l_1_1_2)))
 (let ((?x1297 (* l_1_1_15 l_1_1_15)))
 (let ((?x1337 (* 3.0 l_1_1_1)))
 (let ((?x1333 (* _a_1_ l_1_1_7)))
 (let ((?x1331 (* _a_1_ l_1_1_6)))
 (let ((?x1334 (- (- (- (* (* 3.0 _a_1_) l_1_1_12) (* _a_1_ l_1_1_13)) ?x1331) ?x1333)))
 (let ((?x1295 (- (- (+ (+ ?x1334 (* (* 3.0 _a_1_) l_1_1_8)) ?x1337) l_1_1_10) (* (* l_1_1_11 _a_1_) _a_1_))))
 (let ((?x572 (- (+ (- (+ (- (- ?x1295 l_1_1_14) ?x1297) ?x1299) ?x1212) ?x1219) l_1_1_5)))
 (= (+ (- ?x572 l_1_1_9) 1.0) 0.0))))))))))))
(assert
 (let ((?x966 (* 6.0 l_1_1_3)))
 (let ((?x964 (* l_1_1_20 l_1_1_20)))
 (let ((?x961 (* l_1_1_19 l_1_1_19)))
 (let ((?x958 (* l_1_1_18 l_1_1_18)))
 (let ((?x57 (* _a_2_ l_1_1_7)))
 (let ((?x1081 (- (- (- (* (- _a_2_) l_1_1_13) (* _a_2_ l_1_1_6)) ?x57) l_1_1_1)))
 (let ((?x953 (- ?x1081 (* l_1_1_11 (+ (* (* 2.0 _a_1_) _a_2_) (* _a_3_ _a_3_))))))
 (let ((?x962 (- (- (- ?x953 (* l_1_1_12 (- _a_1_ (* 3.0 _a_2_)))) ?x958) ?x961)))
 (let ((?x970 (- (- (+ (- (- ?x962 l_1_1_2) ?x964) ?x966) l_1_1_4) (* l_1_1_8 (- _a_1_ (* 3.0 _a_2_))))))
 (= (- ?x970 1.0) 0.0)))))))))))
(assert
 (let ((?x778 (* _a_4_ l_1_1_7)))
 (let ((?x471 (* _a_4_ l_1_1_6)))
 (let ((?x381 (* _a_4_ l_1_1_13)))
 (let ((?x815 (+ (* (* (* (- 2.0) _a_1_) _a_4_) l_1_1_11) (* (* 3.0 _a_4_) l_1_1_12))))
 (let ((?x780 (+ (- (- (- ?x815 ?x381) ?x471) ?x778) (* (* 3.0 _a_4_) l_1_1_8))))
 (= (- (- ?x780 (* (* 2.0 l_1_1_15) l_1_1_16)) 2.0) 0.0)))))))
(assert
 (let ((?x966 (* 6.0 l_1_1_3)))
 (let ((?x522 (* l_1_1_17 l_1_1_17)))
 (let ((?x518 (* l_1_1_16 l_1_1_16)))
 (let ((?x575 (* _a_5_ l_1_1_7)))
 (let ((?x577 (- (- (- (* (- _a_5_) l_1_1_13) (* _a_5_ l_1_1_6)) ?x575) l_1_1_1)))
 (let ((?x508 (- ?x577 (* l_1_1_11 (+ (* (* 2.0 _a_1_) _a_5_) (* _a_4_ _a_4_))))))
 (let ((?x523 (- (- (- ?x508 (* l_1_1_12 (- _a_1_ (* 3.0 _a_5_)))) ?x518) ?x522)))
 (let ((?x321 (- (- (+ (- ?x523 l_1_1_2) ?x966) l_1_1_4) (* l_1_1_8 (- _a_1_ (* 3.0 _a_5_))))))
 (= ?x321 0.0))))))))))
(assert
 (let ((?x234 (- (- (* (- _a_2_) l_1_1_12) (* _a_2_ l_1_1_8)) (* (* l_1_1_11 _a_2_) _a_2_))))
 (= (- ?x234 l_1_1_3) 0.0)))
(assert
 (let ((?x226 (* 2.0 l_1_1_3)))
 (let ((?x263 (* _a_0_ _a_0_)))
 (let ((?x222 (+ ?x263 (* (* 2.0 _a_2_) _a_5_))))
 (let ((?x227 (- (- (* (- l_1_1_11) ?x222) (* l_1_1_12 (+ _a_2_ _a_5_))) ?x226)))
 (= (- ?x227 (* l_1_1_8 (+ _a_2_ _a_5_))) 0.0))))))
(assert
 (let ((?x151 (- (- (* (- _a_5_) l_1_1_12) (* _a_5_ l_1_1_8)) (* (* l_1_1_11 _a_5_) _a_5_))))
 (= (- ?x151 l_1_1_3) 0.0)))
(assert
 (let ((?x713 (+ (* (* 2.0 _a_0_) _a_1_) (* (* 2.0 _a_3_) _a_4_))))
 (let ((?x70 (* _a_0_ l_1_1_7)))
 (let ((?x68 (* _a_0_ l_1_1_6)))
 (let ((?x71 (- (- (- (* (* 3.0 _a_0_) l_1_1_12) (* _a_0_ l_1_1_13)) ?x68) ?x70)))
 (let ((?x707 (- (- (+ ?x71 (* (* 3.0 _a_0_) l_1_1_8)) (* l_1_1_11 ?x713)) (* (* 2.0 l_1_1_16) l_1_1_18))))
 (= (- ?x707 (* (* 2.0 l_1_1_17) l_1_1_19)) 0.0)))))))
(assert
 (let ((?x247 (* _a_3_ l_1_1_7)))
 (let ((?x248 (* _a_3_ l_1_1_6)))
 (let ((?x246 (* _a_3_ l_1_1_13)))
 (let ((?x238 (+ (* (* (* (- 2.0) _a_1_) _a_3_) l_1_1_11) (* (* 3.0 _a_3_) l_1_1_12))))
 (let ((?x100 (+ (- (- (- ?x238 ?x246) ?x248) ?x247) (* (* 3.0 _a_3_) l_1_1_8))))
 (= (- ?x100 (* (* 2.0 l_1_1_15) l_1_1_18)) 0.0)))))))
(assert
 (let ((?x796 (* _a_0_ l_1_1_8)))
 (let ((?x791 (* _a_0_ l_1_1_12)))
 (= (- (- (* (* (* (- 2.0) _a_0_) _a_2_) l_1_1_11) ?x791) ?x796) 0.0))))
(assert
 (let ((?x912 (* _a_3_ l_1_1_8)))
 (let ((?x214 (* _a_3_ l_1_1_12)))
 (= (- (- (* (* (* (- 2.0) _a_2_) _a_3_) l_1_1_11) ?x214) ?x912) 0.0))))
(assert
 (let ((?x493 (+ (* (* 2.0 _a_0_) _a_3_) (* (* 2.0 _a_2_) _a_4_))))
 (let ((?x1376 (- (- (* (- _a_4_) l_1_1_12) (* _a_4_ l_1_1_8)) (* l_1_1_11 ?x493))))
 (= ?x1376 0.0))))
(assert
 (let ((?x796 (* _a_0_ l_1_1_8)))
 (let ((?x791 (* _a_0_ l_1_1_12)))
 (= (- (- (* (* (* (- 2.0) _a_0_) _a_5_) l_1_1_11) ?x791) ?x796) 0.0))))
(assert
 (let ((?x1195 (+ (* (* 2.0 _a_0_) _a_4_) (* (* 2.0 _a_3_) _a_5_))))
 (let ((?x1196 (- (- (* (- _a_3_) l_1_1_12) (* _a_3_ l_1_1_8)) (* l_1_1_11 ?x1195))))
 (= ?x1196 0.0))))
(assert
 (let ((?x678 (* _a_4_ l_1_1_8)))
 (let ((?x740 (* _a_4_ l_1_1_12)))
 (= (- (- (* (* (* (- 2.0) _a_4_) _a_5_) l_1_1_11) ?x740) ?x678) 0.0))))
(assert
 (>= l_1_1_1 0.0))
(assert
 (>= l_1_1_2 0.0))
(assert
 (>= l_1_1_3 0.0))
(assert
 (>= l_1_1_4 0.0))
(assert
 (>= l_1_1_5 0.0))
(assert
 (>= l_1_1_6 0.0))
(assert
 (>= l_1_1_7 0.0))
(assert
 (>= l_1_1_8 0.0))
(assert
 (>= l_1_1_9 0.0))
(assert
 (>= l_1_1_10 0.0))
(assert
 (>= l_1_1_11 0.0))
(assert
 (>= l_1_1_12 0.0))
(assert
 (>= l_1_1_13 0.0))
(assert
 (>= l_1_1_14 0.0))
(assert
 (>= l_1_1_15 0.0))
(assert
 (>= l_1_1_17 0.0))
(assert
 (>= l_1_1_20 0.0))
(assert
 (let ((?x1477 (* l_1_2_20 l_1_2_20)))
 (let ((?x652 (* l_1_2_19 l_1_2_19)))
 (let ((?x1532 (* l_1_2_18 l_1_2_18)))
 (let ((?x621 (* 6.0 l_1_2_1)))
 (let ((?x619 (* (/ 229441.0 250000.0) _a_5_)))
 (let ((?x618 (* (/ 23.0 100.0) _a_4_)))
 (let ((?x622 (* (/ 81.0 100.0) _a_2_)))
 (let ((?x829 (* _a_2_ l_1_2_8)))
 (let ((?x826 (* _a_2_ l_1_2_13)))
 (let ((?x617 (+ (- (- (- (* (/ 4311.0 5000.0) _a_0_) (* _a_2_ l_1_2_10)) ?x826) ?x829) ?x622)))
 (let ((?x757 (- (+ (+ (+ (- ?x617 ?x618) ?x619) ?x621) l_1_2_11) (* l_1_2_12 (+ (- _a_1_) (* 3.0 _a_2_))))))
 (let ((?x1468 (- (- (- ?x757 ?x1532) ?x652) (* l_1_2_2 (+ (- _a_1_) (* 3.0 _a_2_))))))
 (let ((?x174 (- (+ (+ (- ?x1468 ?x1477) l_1_2_5) l_1_2_6) (* l_1_2_9 (+ (* (* 2.0 _a_1_) _a_2_) (* _a_3_ _a_3_))))))
 (= ?x174 0.0)))))))))))))))
(assert
 (let ((?x713 (+ (* (* 2.0 _a_0_) _a_1_) (* (* 2.0 _a_3_) _a_4_))))
 (let ((?x1680 (* (/ 10059.0 50000.0) _a_5_)))
 (let ((?x1153 (* (/ 1.0 20.0) _a_4_)))
 (let ((?x663 (* (/ 189.0 2000.0) _a_0_)))
 (let ((?x646 (* _a_0_ l_1_2_8)))
 (let ((?x1020 (* _a_0_ l_1_2_13)))
 (let ((?x1021 (- (- (* (- _a_0_) l_1_2_10) (* (* 3.0 _a_0_) l_1_2_12)) ?x1020)))
 (let ((?x1157 (- (- (- (- ?x1021 (* (* 3.0 _a_0_) l_1_2_2)) ?x646) ?x663) ?x1153)))
 (let ((?x1146 (- (- (- ?x1157 ?x1680) (* (* 2.0 l_1_2_16) l_1_2_18)) (* (* 2.0 l_1_2_17) l_1_2_19))))
 (= (- ?x1146 (* l_1_2_9 ?x713)) 0.0)))))))))))
(assert
 (let ((?x1119 (* (/ 11017.0 25000.0) _a_5_)))
 (let ((?x104 (* (/ 1.0 10.0) _a_4_)))
 (let ((?x1124 (* _a_3_ l_1_2_2)))
 (let ((?x1143 (* _a_3_ l_1_2_12)))
 (let ((?x1144 (+ (- (* (- (/ 207.0 1000.0)) _a_0_) (* (* (* 2.0 _a_2_) _a_3_) l_1_2_9)) ?x1143)))
 (= (- (- (+ ?x1144 ?x1124) ?x104) ?x1119) 0.0)))))))
(assert
 (let ((?x493 (+ (* (* 2.0 _a_0_) _a_3_) (* (* 2.0 _a_2_) _a_4_))))
 (let ((?x696 (* (/ 19.0 400.0) _a_5_)))
 (let ((?x892 (* _a_4_ l_1_2_2)))
 (let ((?x1129 (- (- (+ (+ (* (- (/ 9.0 200.0)) _a_0_) (* _a_4_ l_1_2_12)) ?x892) ?x696) (* l_1_2_9 ?x493))))
 (= ?x1129 0.0))))))
(assert
 (let ((?x362 (* (/ 1387.0 10000.0) _a_5_)))
 (let ((?x1410 (* _a_2_ l_1_2_2)))
 (let ((?x526 (- (- (+ (+ (* (- (/ 9.0 100.0)) _a_0_) (* _a_2_ l_1_2_12)) ?x1410) ?x362) l_1_2_1)))
 (= (- ?x526 (* (* l_1_2_9 _a_2_) _a_2_)) 0.0)))))
(assert
 (let ((?x1611 (* 3.0 l_1_2_6)))
 (let ((?x1033 (* 3.0 l_1_2_5)))
 (let ((?x1474 (* l_1_2_15 l_1_2_15)))
 (let ((?x1404 (* 3.0 l_1_2_11)))
 (let ((?x650 (* 9.0 l_1_2_1)))
 (let ((?x1156 (* _a_1_ l_1_2_8)))
 (let ((?x672 (* _a_1_ l_1_2_13)))
 (let ((?x1158 (- (- (* (- _a_1_) l_1_2_10) (* (* 3.0 _a_1_) l_1_2_12)) ?x672)))
 (let ((?x651 (- (+ (- (- ?x1158 (* (* 3.0 _a_1_) l_1_2_2)) ?x1156) _a_1_) ?x650)))
 (let ((?x1606 (- (- (- (- (- (- ?x651 ?x1404) l_1_2_14) ?x1474) l_1_2_3) l_1_2_4) ?x1033)))
 (= (- (- (- ?x1606 ?x1611) l_1_2_7) (* (* l_1_2_9 _a_1_) _a_1_)) 0.0))))))))))))
(assert
 (let ((?x179 (* (/ 479.0 500.0) _a_4_)))
 (let ((?x181 (* (/ 9.0 10.0) _a_3_)))
 (let ((?x836 (* _a_3_ l_1_2_8)))
 (let ((?x1125 (* _a_3_ l_1_2_13)))
 (let ((?x612 (* _a_3_ l_1_2_10)))
 (let ((?x615 (- (- (* (* (* (- 2.0) _a_1_) _a_3_) l_1_2_9) ?x612) (* (* 3.0 _a_3_) l_1_2_12))))
 (let ((?x182 (+ (- (- (- ?x615 ?x1125) (* (* 3.0 _a_3_) l_1_2_2)) ?x836) ?x181)))
 (= (- (+ ?x182 ?x179) (* (* 2.0 l_1_2_15) l_1_2_18)) 0.0)))))))))
(assert
 (let ((?x1622 (* (/ 21.0 200.0) _a_4_)))
 (let ((?x1619 (* _a_4_ l_1_2_8)))
 (let ((?x1662 (* _a_4_ l_1_2_13)))
 (let ((?x1641 (* _a_4_ l_1_2_10)))
 (let ((?x1644 (- (- (* (* (* (- 2.0) _a_1_) _a_4_) l_1_2_9) ?x1641) (* (* 3.0 _a_4_) l_1_2_12))))
 (let ((?x1615 (- (- (- (- ?x1644 ?x1662) (* (* 3.0 _a_4_) l_1_2_2)) ?x1619) ?x1622)))
 (= (- ?x1615 (* (* 2.0 l_1_2_15) l_1_2_16)) 0.0))))))))
(assert
 (let ((?x1507 (* l_1_2_17 l_1_2_17)))
 (let ((?x1149 (* l_1_2_16 l_1_2_16)))
 (let ((?x621 (* 6.0 l_1_2_1)))
 (let ((?x1138 (* (/ 441.0 40000.0) _a_5_)))
 (let ((?x1206 (* _a_5_ l_1_2_8)))
 (let ((?x302 (+ (- (- (* (- _a_5_) l_1_2_10) (* _a_5_ l_1_2_13)) ?x1206) ?x1138)))
 (let ((?x1148 (- (+ (+ ?x302 ?x621) l_1_2_11) (* l_1_2_12 (+ (- _a_1_) (* 3.0 _a_5_))))))
 (let ((?x472 (- (- (- ?x1148 ?x1149) ?x1507) (* l_1_2_2 (+ (- _a_1_) (* 3.0 _a_5_))))))
 (let ((?x657 (- (+ (+ ?x472 l_1_2_5) l_1_2_6) (* l_1_2_9 (+ (* (* 2.0 _a_1_) _a_5_) (* _a_4_ _a_4_))))))
 (= ?x657 0.0)))))))))))
(assert
 (let ((?x1195 (+ (* (* 2.0 _a_0_) _a_4_) (* (* 2.0 _a_3_) _a_5_))))
 (let ((?x1315 (* (/ 21.0 2000.0) _a_5_)))
 (let ((?x772 (- (+ (+ (* _a_3_ l_1_2_12) (* _a_3_ l_1_2_2)) ?x1315) (* l_1_2_9 ?x1195))))
 (= ?x772 0.0)))))
(assert
 (let ((?x1663 (* (/ 11.0 250.0) _a_5_)))
 (let ((?x1035 (* _a_0_ l_1_2_2)))
 (let ((?x1181 (* _a_0_ l_1_2_12)))
 (let ((?x1664 (+ (+ (+ (* (* (* (- 2.0) _a_0_) _a_2_) l_1_2_9) ?x1181) ?x1035) ?x1663)))
 (= ?x1664 0.0))))))
(assert
 (= (* (/ 23.0 500.0) _a_5_) 0.0))
(assert
 (let ((?x1327 (- (- (* (/ 1.0 400.0) _a_5_) (* 2.0 l_1_2_1)) (* l_1_2_12 (- (- _a_2_) _a_5_)))))
 (let ((?x1290 (- (- ?x1327 (* l_1_2_2 (- (- _a_2_) _a_5_))) (* l_1_2_9 (+ (* _a_0_ _a_0_) (* (* 2.0 _a_2_) _a_5_))))))
 (= ?x1290 0.0))))
(assert
 (= (* (/ 1.0 100.0) _a_5_) 0.0))
(assert
 (= (* (/ 1.0 100.0) _a_5_) 0.0))
(assert
 (let ((?x281 (- (- (+ (* _a_5_ l_1_2_12) (* _a_5_ l_1_2_2)) l_1_2_1) (* (* l_1_2_9 _a_5_) _a_5_))))
 (= ?x281 0.0)))
(assert
 (let ((?x1035 (* _a_0_ l_1_2_2)))
 (let ((?x1181 (* _a_0_ l_1_2_12)))
 (= (+ (+ (* (* (* (- 2.0) _a_0_) _a_5_) l_1_2_9) ?x1181) ?x1035) 0.0))))
(assert
 (let ((?x892 (* _a_4_ l_1_2_2)))
 (let ((?x839 (* _a_4_ l_1_2_12)))
 (= (+ (+ (* (* (* (- 2.0) _a_4_) _a_5_) l_1_2_9) ?x839) ?x892) 0.0))))
(assert
 (>= l_1_2_1 0.0))
(assert
 (>= l_1_2_2 0.0))
(assert
 (>= l_1_2_3 0.0))
(assert
 (>= l_1_2_4 0.0))
(assert
 (>= l_1_2_5 0.0))
(assert
 (>= l_1_2_6 0.0))
(assert
 (>= l_1_2_7 0.0))
(assert
 (>= l_1_2_8 0.0))
(assert
 (>= l_1_2_9 0.0))
(assert
 (>= l_1_2_10 0.0))
(assert
 (>= l_1_2_11 0.0))
(assert
 (>= l_1_2_12 0.0))
(assert
 (>= l_1_2_13 0.0))
(assert
 (>= l_1_2_14 0.0))
(assert
 (>= l_1_2_15 0.0))
(assert
 (>= l_1_2_17 0.0))
(assert
 (>= l_1_2_20 0.0))
(check-sat)
(get-model)